Version identifier: 20.1.0.0 | 2020-11-10 | 9bedb6d68
CPXPARAM_LPMethod                                2
CPXPARAM_QPMethod                                2
CPXPARAM_Threads                                 4
CPXPARAM_MIP_Strategy_StartAlgorithm             2
CPXPARAM_TimeLimit                               43200
Tried aggregator 1 time.
LP Presolve eliminated 0 rows and 496 columns.
All rows and columns eliminated.
Presolve time = 0,00 sec. (0,06 ticks)
Version identifier: 20.1.0.0 | 2020-11-10 | 9bedb6d68
CPXPARAM_LPMethod                                2
CPXPARAM_QPMethod                                2
CPXPARAM_Threads                                 4
CPXPARAM_MIP_Strategy_StartAlgorithm             2
CPXPARAM_TimeLimit                               43200
Version identifier: 20.1.0.0 | 2020-11-10 | 9bedb6d68
CPXPARAM_LPMethod                                2
CPXPARAM_QPMethod                                2
CPXPARAM_Threads                                 4
CPXPARAM_MIP_Strategy_StartAlgorithm             2
CPXPARAM_TimeLimit                               43200

Iteration log . . .
Iteration:     1   Dual objective     =             1,000000
Iteration:   115   Dual objective     =            22,000000
Iteration:   225   Dual objective     =            35,500000
Version identifier: 20.1.0.0 | 2020-11-10 | 9bedb6d68
CPXPARAM_LPMethod                                2
CPXPARAM_QPMethod                                2
CPXPARAM_Threads                                 4
CPXPARAM_MIP_Strategy_StartAlgorithm             2
CPXPARAM_TimeLimit                               43200
Reinitializing dual norms . . .
Computed 873 new norms.

Iteration log . . .
Iteration:     1   Dual objective     =            37,000000
Perturbation started.
Iteration:   102   Dual objective     =            38,000000
Removing perturbation.
Version identifier: 20.1.0.0 | 2020-11-10 | 9bedb6d68
CPXPARAM_LPMethod                                2
CPXPARAM_QPMethod                                2
CPXPARAM_Threads                                 4
CPXPARAM_MIP_Strategy_StartAlgorithm             2
CPXPARAM_TimeLimit                               43200
Reinitializing dual norms . . .
Computed 19 new norms.

Iteration log . . .
Iteration:     1   Dual objective     =            40,000000
